NAME PortOpt_n20_m8_inst_3
ROWS
 N  OBJ
 E  budget  
 L  return  
 L  uncertain_risk
 L  fixed_risk
COLUMNS
    asset[0]  budget    1
    asset[0]  return    -3.2498743910789836e+00
    asset[1]  budget    1
    asset[1]  return    -2.3422498029076180e+00
    asset[2]  budget    1
    asset[2]  return    -2.4238045444328713e+00
    asset[3]  budget    1
    asset[3]  return    -4.0579293784294759e+00
    asset[4]  budget    1
    asset[4]  return    -3.3607832814259258e+00
    asset[5]  budget    1
    asset[5]  return    -4.8705178751284031e+00
    asset[6]  budget    1
    asset[6]  return    -3.6806716131208068e+00
    asset[7]  budget    1
    asset[7]  return    -2.6641023020626671e+00
    asset[8]  budget    1
    asset[8]  return    -4.5115315476780617e+00
    asset[9]  budget    1
    asset[9]  return    -1.0631567453607511e+00
    asset[10]  budget    1
    asset[10]  return    -3.5521338636880184e+00
    asset[11]  budget    1
    asset[11]  return    -4.2801253431155351e+00
    asset[12]  budget    1
    asset[12]  return    -1.3368939144997176e+00
    asset[13]  budget    1
    asset[13]  return    -3.7312815140674891e+00
    asset[14]  budget    1
    asset[14]  return    -1.5952120144103119e+00
    asset[15]  budget    1
    asset[15]  return    -4.2676590781928576e+00
    asset[16]  budget    1
    asset[16]  return    -3.5386485912046126e+00
    asset[17]  budget    1
    asset[17]  return    -1.4290411887674084e+00
    asset[18]  budget    1
    asset[18]  return    -1.1934568029689776e+00
    asset[19]  budget    1
    asset[19]  return    -2.4982154908797556e+00
    return_var  OBJ       -1
    return_var  return    1
    uncertain_risk_var  OBJ       1
    uncertain_risk_var  uncertain_risk  -1
    fixed_risk_var  OBJ       1
    fixed_risk_var  fixed_risk  -1
RHS
    RHS1      budget    1
BOUNDS
 FR BND1      asset[0]
 FR BND1      asset[1]
 FR BND1      asset[2]
 FR BND1      asset[3]
 FR BND1      asset[4]
 FR BND1      asset[5]
 FR BND1      asset[6]
 FR BND1      asset[7]
 FR BND1      asset[8]
 FR BND1      asset[9]
 FR BND1      asset[10]
 FR BND1      asset[11]
 FR BND1      asset[12]
 FR BND1      asset[13]
 FR BND1      asset[14]
 FR BND1      asset[15]
 FR BND1      asset[16]
 FR BND1      asset[17]
 FR BND1      asset[18]
 FR BND1      asset[19]
 FR BND1      return_var
 FR BND1      uncertain_risk_var
 FR BND1      fixed_risk_var
QCMATRIX   uncertain_risk
    asset[0]  asset[0]  1.5069145040979934e-02
    asset[0]  asset[1]  -1.0256171754914514e-02
    asset[1]  asset[0]  -1.0256171754914514e-02
    asset[0]  asset[2]  -5.3248293153977094e-03
    asset[2]  asset[0]  -5.3248293153977094e-03
    asset[0]  asset[3]  1.0465933329625306e-02
    asset[3]  asset[0]  1.0465933329625306e-02
    asset[0]  asset[4]  1.3907225054978951e-02
    asset[4]  asset[0]  1.3907225054978951e-02
    asset[0]  asset[5]  1.0153273110197239e-02
    asset[5]  asset[0]  1.0153273110197239e-02
    asset[0]  asset[6]  -7.1247198711378076e-03
    asset[6]  asset[0]  -7.1247198711378076e-03
    asset[0]  asset[7]  -6.5552801837607411e-03
    asset[7]  asset[0]  -6.5552801837607411e-03
    asset[0]  asset[8]  -1.9403534261838443e-02
    asset[8]  asset[0]  -1.9403534261838443e-02
    asset[0]  asset[9]  -1.0771580553615575e-02
    asset[9]  asset[0]  -1.0771580553615575e-02
    asset[0]  asset[10]  6.3936840732712070e-03
    asset[10]  asset[0]  6.3936840732712070e-03
    asset[0]  asset[11]  -1.0742089506636958e-02
    asset[11]  asset[0]  -1.0742089506636958e-02
    asset[0]  asset[12]  -2.3099957249245280e-03
    asset[12]  asset[0]  -2.3099957249245280e-03
    asset[0]  asset[13]  1.8795978090294693e-02
    asset[13]  asset[0]  1.8795978090294693e-02
    asset[0]  asset[14]  6.2717438722827948e-04
    asset[14]  asset[0]  6.2717438722827948e-04
    asset[0]  asset[15]  7.1508396068243642e-03
    asset[15]  asset[0]  7.1508396068243642e-03
    asset[0]  asset[16]  3.4699868445922694e-03
    asset[16]  asset[0]  3.4699868445922694e-03
    asset[0]  asset[17]  1.5820981029365903e-02
    asset[17]  asset[0]  1.5820981029365903e-02
    asset[0]  asset[18]  -1.3254017955696824e-02
    asset[18]  asset[0]  -1.3254017955696824e-02
    asset[0]  asset[19]  1.6885353538964368e-03
    asset[19]  asset[0]  1.6885353538964368e-03
    asset[1]  asset[1]  1.2679728097485288e-01
    asset[1]  asset[2]  2.6229249086221713e-02
    asset[2]  asset[1]  2.6229249086221713e-02
    asset[1]  asset[3]  -5.5070749254993855e-02
    asset[3]  asset[1]  -5.5070749254993855e-02
    asset[1]  asset[4]  -2.6059879115902324e-02
    asset[4]  asset[1]  -2.6059879115902324e-02
    asset[1]  asset[5]  -1.9849249984310712e-02
    asset[5]  asset[1]  -1.9849249984310712e-02
    asset[1]  asset[6]  -1.7852212103258328e-02
    asset[6]  asset[1]  -1.7852212103258328e-02
    asset[1]  asset[7]  9.4431135743997339e-03
    asset[7]  asset[1]  9.4431135743997339e-03
    asset[1]  asset[8]  2.5256246066471082e-02
    asset[8]  asset[1]  2.5256246066471082e-02
    asset[1]  asset[9]  2.5039066709441327e-02
    asset[9]  asset[1]  2.5039066709441327e-02
    asset[1]  asset[10]  -2.4539734140343237e-03
    asset[10]  asset[1]  -2.4539734140343237e-03
    asset[1]  asset[11]  2.3856432422309497e-02
    asset[11]  asset[1]  2.3856432422309497e-02
    asset[1]  asset[12]  -3.4661498670949795e-02
    asset[12]  asset[1]  -3.4661498670949795e-02
    asset[1]  asset[13]  5.7043232623211248e-03
    asset[13]  asset[1]  5.7043232623211248e-03
    asset[1]  asset[14]  -2.3817722371164869e-02
    asset[14]  asset[1]  -2.3817722371164869e-02
    asset[1]  asset[15]  7.9809238504053998e-03
    asset[15]  asset[1]  7.9809238504053998e-03
    asset[1]  asset[16]  1.5931889298335340e-02
    asset[16]  asset[1]  1.5931889298335340e-02
    asset[1]  asset[17]  -2.3758083468886936e-02
    asset[17]  asset[1]  -2.3758083468886936e-02
    asset[1]  asset[18]  5.3792501489754854e-02
    asset[18]  asset[1]  5.3792501489754854e-02
    asset[1]  asset[19]  -1.5322556789175240e-02
    asset[19]  asset[1]  -1.5322556789175240e-02
    asset[2]  asset[2]  2.8524113365217141e-02
    asset[2]  asset[3]  -1.3889079772221993e-02
    asset[3]  asset[2]  -1.3889079772221993e-02
    asset[2]  asset[4]  -2.3871731761779660e-02
    asset[4]  asset[2]  -2.3871731761779660e-02
    asset[2]  asset[5]  -2.1543693693634913e-02
    asset[5]  asset[2]  -2.1543693693634913e-02
    asset[2]  asset[6]  8.2535568334170389e-03
    asset[6]  asset[2]  8.2535568334170389e-03
    asset[2]  asset[7]  1.7112316902429259e-02
    asset[7]  asset[2]  1.7112316902429259e-02
    asset[2]  asset[8]  2.0880549904366886e-03
    asset[8]  asset[2]  2.0880549904366886e-03
    asset[2]  asset[9]  1.0374748531925451e-02
    asset[9]  asset[2]  1.0374748531925451e-02
    asset[2]  asset[10]  -1.8774056710304911e-03
    asset[10]  asset[2]  -1.8774056710304911e-03
    asset[2]  asset[11]  6.3475934427021374e-03
    asset[11]  asset[2]  6.3475934427021374e-03
    asset[2]  asset[12]  3.1141432110661253e-03
    asset[12]  asset[2]  3.1141432110661253e-03
    asset[2]  asset[13]  -6.7750406981583969e-03
    asset[13]  asset[2]  -6.7750406981583969e-03
    asset[2]  asset[14]  -1.3599187444616046e-02
    asset[14]  asset[2]  -1.3599187444616046e-02
    asset[2]  asset[15]  -2.2899948933001318e-02
    asset[15]  asset[2]  -2.2899948933001318e-02
    asset[2]  asset[16]  -6.7839817907782247e-03
    asset[16]  asset[2]  -6.7839817907782247e-03
    asset[2]  asset[17]  -6.5545372234246356e-03
    asset[17]  asset[2]  -6.5545372234246356e-03
    asset[2]  asset[18]  2.4882106983659599e-02
    asset[18]  asset[2]  2.4882106983659599e-02
    asset[2]  asset[19]  -1.0837208738887272e-02
    asset[19]  asset[2]  -1.0837208738887272e-02
    asset[3]  asset[3]  5.9562923417041815e-02
    asset[3]  asset[4]  4.3821437391184243e-02
    asset[4]  asset[3]  4.3821437391184243e-02
    asset[3]  asset[5]  1.3232769980939203e-02
    asset[5]  asset[3]  1.3232769980939203e-02
    asset[3]  asset[6]  -7.9562843340880117e-03
    asset[6]  asset[3]  -7.9562843340880117e-03
    asset[3]  asset[7]  -6.0123457978377235e-03
    asset[7]  asset[3]  -6.0123457978377235e-03
    asset[3]  asset[8]  -3.9935618040781704e-02
    asset[8]  asset[3]  -3.9935618040781704e-02
    asset[3]  asset[9]  -1.5355604889517177e-02
    asset[9]  asset[3]  -1.5355604889517177e-02
    asset[3]  asset[10]  1.7643599430603764e-02
    asset[10]  asset[3]  1.7643599430603764e-02
    asset[3]  asset[11]  -1.7355844744743967e-02
    asset[11]  asset[3]  -1.7355844744743967e-02
    asset[3]  asset[12]  1.4399767801266984e-02
    asset[12]  asset[3]  1.4399767801266984e-02
    asset[3]  asset[13]  1.1422945192781848e-02
    asset[13]  asset[3]  1.1422945192781848e-02
    asset[3]  asset[14]  1.3352765662610585e-03
    asset[14]  asset[3]  1.3352765662610585e-03
    asset[3]  asset[15]  -5.0004576930826519e-03
    asset[15]  asset[3]  -5.0004576930826519e-03
    asset[3]  asset[16]  5.1846263451618742e-03
    asset[16]  asset[3]  5.1846263451618742e-03
    asset[3]  asset[17]  1.8223526939048704e-02
    asset[17]  asset[3]  1.8223526939048704e-02
    asset[3]  asset[18]  -4.7431359014946863e-02
    asset[18]  asset[3]  -4.7431359014946863e-02
    asset[3]  asset[19]  2.0636186623576337e-02
    asset[19]  asset[3]  2.0636186623576337e-02
    asset[4]  asset[4]  5.5988438229610506e-02
    asset[4]  asset[5]  1.9324003575871680e-02
    asset[5]  asset[4]  1.9324003575871680e-02
    asset[4]  asset[6]  -3.0275501747461332e-02
    asset[6]  asset[4]  -3.0275501747461332e-02
    asset[4]  asset[7]  -1.3358687620849241e-02
    asset[7]  asset[4]  -1.3358687620849241e-02
    asset[4]  asset[8]  -2.4774325452196138e-02
    asset[8]  asset[4]  -2.4774325452196138e-02
    asset[4]  asset[9]  -1.9882162036994371e-02
    asset[9]  asset[4]  -1.9882162036994371e-02
    asset[4]  asset[10]  1.9143014827792799e-02
    asset[10]  asset[4]  1.9143014827792799e-02
    asset[4]  asset[11]  -1.8602158743458226e-02
    asset[11]  asset[4]  -1.8602158743458226e-02
    asset[4]  asset[12]  1.6760299287531006e-04
    asset[12]  asset[4]  1.6760299287531006e-04
    asset[4]  asset[13]  2.4961351381326560e-02
    asset[13]  asset[4]  2.4961351381326560e-02
    asset[4]  asset[14]  1.6949143090838263e-03
    asset[14]  asset[4]  1.6949143090838263e-03
    asset[4]  asset[15]  1.5536620927049331e-02
    asset[15]  asset[4]  1.5536620927049331e-02
    asset[4]  asset[16]  9.6199483056468964e-03
    asset[16]  asset[4]  9.6199483056468964e-03
    asset[4]  asset[17]  1.4691576817004632e-02
    asset[17]  asset[4]  1.4691576817004632e-02
    asset[4]  asset[18]  -4.3946612190534549e-02
    asset[18]  asset[4]  -4.3946612190534549e-02
    asset[4]  asset[19]  1.3730908731382004e-02
    asset[19]  asset[4]  1.3730908731382004e-02
    asset[5]  asset[5]  2.3922421857439369e-02
    asset[5]  asset[6]  -5.3822547266548356e-03
    asset[6]  asset[5]  -5.3822547266548356e-03
    asset[5]  asset[7]  -1.4912085605881975e-02
    asset[7]  asset[5]  -1.4912085605881975e-02
    asset[5]  asset[8]  -2.1766104425217075e-02
    asset[8]  asset[5]  -2.1766104425217075e-02
    asset[5]  asset[9]  -9.9681410911399426e-03
    asset[9]  asset[5]  -9.9681410911399426e-03
    asset[5]  asset[10]  7.0080098091020691e-04
    asset[10]  asset[5]  7.0080098091020691e-04
    asset[5]  asset[11]  -9.2359691991000699e-03
    asset[11]  asset[5]  -9.2359691991000699e-03
    asset[5]  asset[12]  -3.2419828545744312e-03
    asset[12]  asset[5]  -3.2419828545744312e-03
    asset[5]  asset[13]  1.5887846854071172e-02
    asset[13]  asset[5]  1.5887846854071172e-02
    asset[5]  asset[14]  1.0765445300755421e-02
    asset[14]  asset[5]  1.0765445300755421e-02
    asset[5]  asset[15]  2.8586579264522544e-02
    asset[15]  asset[5]  2.8586579264522544e-02
    asset[5]  asset[16]  6.3012904014138225e-03
    asset[16]  asset[5]  6.3012904014138225e-03
    asset[5]  asset[17]  1.4899712991081429e-02
    asset[17]  asset[5]  1.4899712991081429e-02
    asset[5]  asset[18]  -2.3563469219068968e-02
    asset[18]  asset[5]  -2.3563469219068968e-02
    asset[5]  asset[19]  1.9235461453147806e-02
    asset[19]  asset[5]  1.9235461453147806e-02
    asset[6]  asset[6]  3.1476513403652255e-02
    asset[6]  asset[7]  5.5198409642051955e-03
    asset[7]  asset[6]  5.5198409642051955e-03
    asset[6]  asset[8]  -2.3014943605428298e-04
    asset[8]  asset[6]  -2.3014943605428298e-04
    asset[6]  asset[9]  9.4769523783200336e-03
    asset[9]  asset[6]  9.4769523783200336e-03
    asset[6]  asset[10]  -1.2530785885586603e-02
    asset[10]  asset[6]  -1.2530785885586603e-02
    asset[6]  asset[11]  6.7139066479220749e-03
    asset[11]  asset[6]  6.7139066479220749e-03
    asset[6]  asset[12]  1.1743014656426947e-02
    asset[12]  asset[6]  1.1743014656426947e-02
    asset[6]  asset[13]  -1.9040214249842188e-02
    asset[13]  asset[6]  -1.9040214249842188e-02
    asset[6]  asset[14]  8.8720357601600429e-03
    asset[14]  asset[6]  8.8720357601600429e-03
    asset[6]  asset[15]  -8.3312503786208813e-03
    asset[15]  asset[6]  -8.3312503786208813e-03
    asset[6]  asset[16]  -9.4824748696025092e-03
    asset[16]  asset[6]  -9.4824748696025092e-03
    asset[6]  asset[17]  -1.9789982735325565e-03
    asset[17]  asset[6]  -1.9789982735325565e-03
    asset[6]  asset[18]  1.1788701074294909e-02
    asset[18]  asset[6]  1.1788701074294909e-02
    asset[6]  asset[19]  5.8106872480771414e-03
    asset[19]  asset[6]  5.8106872480771414e-03
    asset[7]  asset[7]  1.3400257660924925e-02
    asset[7]  asset[8]  3.4654799395062962e-03
    asset[8]  asset[7]  3.4654799395062962e-03
    asset[7]  asset[9]  7.2772706185773375e-03
    asset[9]  asset[7]  7.2772706185773375e-03
    asset[7]  asset[10]  -9.0677621611240844e-04
    asset[10]  asset[7]  -9.0677621611240844e-04
    asset[7]  asset[11]  3.9581945632039825e-03
    asset[11]  asset[7]  3.9581945632039825e-03
    asset[7]  asset[12]  5.3821595641964214e-03
    asset[12]  asset[7]  5.3821595641964214e-03
    asset[7]  asset[13]  -7.5001918368652280e-03
    asset[13]  asset[7]  -7.5001918368652280e-03
    asset[7]  asset[14]  -4.6187364952587559e-03
    asset[14]  asset[7]  -4.6187364952587559e-03
    asset[7]  asset[15]  -1.6104482897802239e-02
    asset[15]  asset[7]  -1.6104482897802239e-02
    asset[7]  asset[16]  -9.3531037002213165e-03
    asset[16]  asset[7]  -9.3531037002213165e-03
    asset[7]  asset[17]  -6.3098742095400867e-03
    asset[17]  asset[7]  -6.3098742095400867e-03
    asset[7]  asset[18]  1.3328363359480618e-02
    asset[18]  asset[7]  1.3328363359480618e-02
    asset[7]  asset[19]  -6.4272645428554553e-03
    asset[19]  asset[7]  -6.4272645428554553e-03
    asset[8]  asset[8]  7.5088134768341266e-02
    asset[8]  asset[9]  1.0204645046826888e-02
    asset[9]  asset[8]  1.0204645046826888e-02
    asset[8]  asset[10]  -8.8809987139745403e-03
    asset[10]  asset[8]  -8.8809987139745403e-03
    asset[8]  asset[11]  1.9581705185940733e-02
    asset[11]  asset[8]  1.9581705185940733e-02
    asset[8]  asset[12]  -7.8996680894917737e-03
    asset[12]  asset[8]  -7.8996680894917737e-03
    asset[8]  asset[13]  -3.2418564699348548e-02
    asset[13]  asset[8]  -3.2418564699348548e-02
    asset[8]  asset[14]  -3.5316963001257558e-03
    asset[14]  asset[8]  -3.5316963001257558e-03
    asset[8]  asset[15]  -2.2396134649789387e-02
    asset[15]  asset[8]  -2.2396134649789387e-02
    asset[8]  asset[16]  -1.6600372798409920e-03
    asset[16]  asset[8]  -1.6600372798409920e-03
    asset[8]  asset[17]  -3.3398661314672971e-02
    asset[17]  asset[8]  -3.3398661314672971e-02
    asset[8]  asset[18]  3.4727925240185004e-02
    asset[18]  asset[8]  3.4727925240185004e-02
    asset[8]  asset[19]  -3.9925000473148238e-02
    asset[19]  asset[8]  -3.9925000473148238e-02
    asset[9]  asset[9]  1.4943170340866764e-02
    asset[9]  asset[10]  -4.2239049736119156e-03
    asset[10]  asset[9]  -4.2239049736119156e-03
    asset[9]  asset[11]  1.3494815272456013e-02
    asset[11]  asset[9]  1.3494815272456013e-02
    asset[9]  asset[12]  -5.2035769105353881e-03
    asset[12]  asset[9]  -5.2035769105353881e-03
    asset[9]  asset[13]  -1.2826317934638886e-02
    asset[13]  asset[9]  -1.2826317934638886e-02
    asset[9]  asset[14]  -2.0945741751220346e-03
    asset[14]  asset[9]  -2.0945741751220346e-03
    asset[9]  asset[15]  -7.9106896943207175e-03
    asset[15]  asset[9]  -7.9106896943207175e-03
    asset[9]  asset[16]  7.4317961467764001e-04
    asset[16]  asset[9]  7.4317961467764001e-04
    asset[9]  asset[17]  -1.1418543903026619e-02
    asset[17]  asset[9]  -1.1418543903026619e-02
    asset[9]  asset[18]  1.8684001179865274e-02
    asset[18]  asset[9]  1.8684001179865274e-02
    asset[9]  asset[19]  -3.1828055864080718e-03
    asset[19]  asset[9]  -3.1828055864080718e-03
    asset[10]  asset[10]  1.3488931854918047e-02
    asset[10]  asset[11]  -3.5467542742360116e-03
    asset[11]  asset[10]  -3.5467542742360116e-03
    asset[10]  asset[12]  -4.8252331397891333e-03
    asset[12]  asset[10]  -4.8252331397891333e-03
    asset[10]  asset[13]  8.9161176826455992e-03
    asset[13]  asset[10]  8.9161176826455992e-03
    asset[10]  asset[14]  -5.4649707068358984e-03
    asset[14]  asset[10]  -5.4649707068358984e-03
    asset[10]  asset[15]  -1.0216778507269975e-02
    asset[15]  asset[10]  -1.0216778507269975e-02
    asset[10]  asset[16]  7.2436935152837929e-03
    asset[16]  asset[10]  7.2436935152837929e-03
    asset[10]  asset[17]  5.2215963050644652e-03
    asset[17]  asset[10]  5.2215963050644652e-03
    asset[10]  asset[18]  -1.2777223706312818e-02
    asset[18]  asset[10]  -1.2777223706312818e-02
    asset[10]  asset[19]  -5.9428775502861839e-03
    asset[19]  asset[10]  -5.9428775502861839e-03
    asset[11]  asset[11]  1.5091567843934246e-02
    asset[11]  asset[12]  -8.8947041735474661e-03
    asset[12]  asset[11]  -8.8947041735474661e-03
    asset[11]  asset[13]  -1.5218316661644825e-02
    asset[13]  asset[11]  -1.5218316661644825e-02
    asset[11]  asset[14]  -4.1380882202743732e-03
    asset[14]  asset[11]  -4.1380882202743732e-03
    asset[11]  asset[15]  -1.0992891627488698e-02
    asset[15]  asset[11]  -1.0992891627488698e-02
    asset[11]  asset[16]  5.1937051665645381e-03
    asset[16]  asset[11]  5.1937051665645381e-03
    asset[11]  asset[17]  -1.3424868299547286e-02
    asset[17]  asset[11]  -1.3424868299547286e-02
    asset[11]  asset[18]  1.8624317025761242e-02
    asset[18]  asset[11]  1.8624317025761242e-02
    asset[11]  asset[19]  -1.0001312792446281e-02
    asset[19]  asset[11]  -1.0001312792446281e-02
    asset[12]  asset[12]  2.3019218332610406e-02
    asset[12]  asset[13]  -6.6103462445702386e-03
    asset[13]  asset[12]  -6.6103462445702386e-03
    asset[12]  asset[14]  7.1670147285226270e-03
    asset[14]  asset[12]  7.1670147285226270e-03
    asset[12]  asset[15]  -2.3640882022433985e-03
    asset[15]  asset[12]  -2.3640882022433985e-03
    asset[12]  asset[16]  -1.6216969281153265e-02
    asset[16]  asset[12]  -1.6216969281153265e-02
    asset[12]  asset[17]  2.1972846408716963e-03
    asset[17]  asset[12]  2.1972846408716963e-03
    asset[12]  asset[18]  -8.1665707303207012e-03
    asset[18]  asset[12]  -8.1665707303207012e-03
    asset[12]  asset[19]  1.1781409208589317e-02
    asset[19]  asset[12]  1.1781409208589317e-02
    asset[13]  asset[13]  3.3408484067850672e-02
    asset[13]  asset[14]  4.3408706942199538e-04
    asset[14]  asset[13]  4.3408706942199538e-04
    asset[13]  asset[15]  2.3897761021671335e-02
    asset[15]  asset[13]  2.3897761021671335e-02
    asset[13]  asset[16]  3.9605006322420335e-03
    asset[16]  asset[13]  3.9605006322420335e-03
    asset[13]  asset[17]  2.0099665699881634e-02
    asset[17]  asset[13]  2.0099665699881634e-02
    asset[13]  asset[18]  -1.7377556939567471e-02
    asset[18]  asset[13]  -1.7377556939567471e-02
    asset[13]  asset[19]  1.1192554074856163e-02
    asset[19]  asset[13]  1.1192554074856163e-02
    asset[14]  asset[14]  2.3204620821133191e-02
    asset[14]  asset[15]  1.9148195276036721e-02
    asset[15]  asset[14]  1.9148195276036721e-02
    asset[14]  asset[16]  -1.1828078390328539e-02
    asset[16]  asset[14]  -1.1828078390328539e-02
    asset[14]  asset[17]  4.0131266916097075e-03
    asset[17]  asset[14]  4.0131266916097075e-03
    asset[14]  asset[18]  -9.1207371211525119e-03
    asset[18]  asset[14]  -9.1207371211525119e-03
    asset[14]  asset[19]  1.2204488077378971e-02
    asset[19]  asset[14]  1.2204488077378971e-02
    asset[15]  asset[15]  6.3173630155193297e-02
    asset[15]  asset[16]  -1.7913100421040303e-03
    asset[16]  asset[15]  -1.7913100421040303e-03
    asset[15]  asset[17]  1.0996088366479213e-02
    asset[17]  asset[15]  1.0996088366479213e-02
    asset[15]  asset[18]  -1.3594551967468020e-02
    asset[18]  asset[15]  -1.3594551967468020e-02
    asset[15]  asset[19]  3.7479871679049453e-02
    asset[19]  asset[15]  3.7479871679049453e-02
    asset[16]  asset[16]  2.2642245845351662e-02
    asset[16]  asset[17]  1.1020916954463372e-03
    asset[17]  asset[16]  1.1020916954463372e-03
    asset[16]  asset[18]  -4.8969982687092056e-03
    asset[18]  asset[16]  -4.8969982687092056e-03
    asset[16]  asset[19]  -2.8636708455257796e-03
    asset[19]  asset[16]  -2.8636708455257796e-03
    asset[17]  asset[17]  2.1440741592434764e-02
    asset[17]  asset[18]  -2.0568376779585909e-02
    asset[18]  asset[17]  -2.0568376779585909e-02
    asset[17]  asset[19]  1.1865136558127633e-02
    asset[19]  asset[17]  1.1865136558127633e-02
    asset[18]  asset[18]  4.7693955447698159e-02
    asset[18]  asset[19]  -2.1559213170762613e-02
    asset[19]  asset[18]  -2.1559213170762613e-02
    asset[19]  asset[19]  4.5430451983647445e-02
QCMATRIX   fixed_risk
    asset[0]  asset[0]  1.5139491998820843e-03
    asset[1]  asset[1]  1.2561357223410473e-02
    asset[2]  asset[2]  3.0481794911884391e-03
    asset[3]  asset[3]  6.0051941399228825e-03
    asset[4]  asset[4]  4.7364765710172386e-03
    asset[5]  asset[5]  2.7321857673366311e-03
    asset[6]  asset[6]  3.1862887911695186e-03
    asset[7]  asset[7]  1.3246963524211795e-03
    asset[8]  asset[8]  7.5869022932386334e-03
    asset[9]  asset[9]  1.4639433697088218e-03
    asset[10]  asset[10]  1.3370972738978816e-03
    asset[11]  asset[11]  1.5661182031926212e-03
    asset[12]  asset[12]  2.3807720091704359e-03
    asset[13]  asset[13]  3.6055150576534975e-03
    asset[14]  asset[14]  2.2912772313503412e-03
    asset[15]  asset[15]  6.0541994100878340e-03
    asset[16]  asset[16]  2.2746102624195755e-03
    asset[17]  asset[17]  2.2540995301195141e-03
    asset[18]  asset[18]  4.5429326746367696e-03
    asset[19]  asset[19]  4.6154585216918254e-03
ENDATA
